(set-info :smt-lib-version 2.6)
(set-logic QF_S)
(set-info :source |
Generated by: Murphy Berzish, Mitja Kulczynski, Federico Mora, Florin Manea, Joel Day, Dirk Nowotka, Vijay Ganesh, Zhengyang Lu
Generated on: 2020-10-01
Description: Translated from a collection of real-world regex queries, AutomataArk, collected by Loris D’Antoni and Fang Wang: https://github.com/lorisdanto/automatark
Application: Evaluate solvers on real-world regex queries
Target solver: Z3str3RE, CVC4, OSTRICH, Z3seq, Z3str3, Z3-Trau
Publications: Berzish, M., Kulczynski, M., Mora, F., Manea, F., Day, J. D., Nowotka, D., & Ganesh, V. (2021, July). An SMT solver for regular expressions and linear arithmetic over string length. In CAV 2021.
|)
(set-info :license "https://creativecommons.org/licenses/by/4.0/")
(set-info :category "industrial")
(set-info :status sat)

(declare-const X String)
(assert (not (str.in_re X (re.++ ((_ re.loop 1 1) (re.++ (re.* ((_ re.loop 4 4) (re.union (re.range "A" "Z") (re.range "a" "z") (re.range "0" "9") (str.to_re "+") (str.to_re "/")))) (re.opt (re.union (re.++ ((_ re.loop 3 3) (re.union (re.range "A" "Z") (re.range "a" "z") (re.range "0" "9") (str.to_re "+") (str.to_re "/"))) (str.to_re "=")) (re.++ ((_ re.loop 2 2) (re.union (re.range "A" "Z") (re.range "a" "z") (re.range "0" "9") (str.to_re "+") (str.to_re "/"))) (str.to_re "==")))))) (str.to_re "\u{a}")))))
(assert (str.in_re X (re.++ (str.to_re "/load.php?spl=") (re.union (str.to_re "Spreadsheet") (str.to_re "DirectX_DS") (str.to_re "MS09-002") (str.to_re "MS06-006") (str.to_re "mdac") (str.to_re "RoxioCP v3.2") (str.to_re "wvf") (str.to_re "flash") (str.to_re "Opera_telnet") (str.to_re "compareTo") (str.to_re "jno") (str.to_re "Font_FireFox") (str.to_re "pdf_exp") (str.to_re "aol") (str.to_re "javad") (str.to_re "ActiveX_pack")) (str.to_re "/U\u{a}"))))
(check-sat)

(exit)
